p cnf 320 607
-5  -1  -2  0
-13  -9  -10  0
-17  13  14  0
25  21  22  0
-37  33  34  0
41  37  38  0
49  45  -46  0
-53  49  -50  0
-57  53  54  0
-65  -61  -62  0
69  65  66  0
73  -69  -70  0
-77  -73  74  0
81  77  -78  0
-85  -81  82  0
97  93  94  0
-101  97  -98  0
109  -105  106  0
129  -125  126  0
133  129  130  0
141  -137  138  0
149  145  -146  0
153  -149  150  0
-161  157  -158  0
-165  -161  162  0
169  165  -166  0
173  -169  170  0
177  173  174  0
-185  181  -182  0
189  -185  186  0
193  -189  190  0
-197  -193  194  0
-201  -197  198  0
-205  201  202  0
209  205  -206  0
213  209  -210  0
221  -217  -218  0
229  225  226  0
-233  -229  230  0
237  233  234  0
241  237  -238  0
257  -253  254  0
269  265  -266  0
273  269  270  0
-277  273  274  0
281  -277  -278  0
293  -289  290  0
-297  -293  -294  0
301  -297  -298  0
-305  301  -302  0
309  305  306  0
-313  -309  310  0
6  5  -1  0
6  1  2  0
6  2  -3  0
10  -9  6  0
10  9  5  0
-10  5  6  0
10  6  -7  0
14  -13  10  0
14  -13  -9  0
18  -17  14  0
-18  17  -13  0
18  -13  -14  0
18  -14  15  0
-22  -21  -18  0
22  -18  19  0
26  25  22  0
-26  -21  22  0
26  -22  -23  0
30  29  -26  0
-30  29  -25  0
-30  -26  -27  0
34  33  30  0
34  -29  -30  0
-34  -30  -31  0
-38  37  33  0
38  33  -34  0
38  -34  -35  0
42  -38  39  0
46  -41  -42  0
46  -42  -43  0
-50  49  -46  0
-50  -49  -45  0
-50  46  47  0
54  -53  49  0
54  49  -50  0
-58  57  -54  0
58  57  53  0
-58  53  -54  0
58  54  -55  0
66  65  -61  0
-66  62  63  0
70  -69  -65  0
70  65  66  0
-70  -66  67  0
-74  -73  69  0
-74  -69  -70  0
74  -70  71  0
78  77  -73  0
-78  -73  74  0
82  81  -78  0
82  -81  -77  0
82  77  78  0
86  -81  -82  0
90  89  -85  0
-90  -85  -86  0
94  -93  90  0
94  -93  -89  0
-94  89  90  0
94  90  -91  0
-98  -97  -94  0
-98  94  -95  0
-102  -101  -98  0
102  98  99  0
-106  105  -102  0
106  -105  101  0
-106  101  102  0
106  102  103  0
-110  -109  -106  0
-110  -106  107  0
118  117  114  0
118  117  113  0
-122  121  -118  0
122  117  118  0
122  118  -119  0
126  -125  -122  0
126  122  -123  0
-130  129  -126  0
-130  -129  -125  0
-130  125  126  0
-130  -126  127  0
-134  133  130  0
-134  -133  129  0
-138  -134  -135  0
-142  -141  137  0
-142  138  139  0
146  -145  142  0
146  -145  -141  0
146  142  143  0
150  -149  146  0
150  149  145  0
150  -145  -146  0
-154  -153  149  0
-158  -157  -154  0
158  -157  -153  0
158  154  -155  0
-162  -161  158  0
162  161  157  0
-162  157  158  0
-166  165  162  0
166  161  -162  0
-166  -162  -163  0
170  -169  -165  0
170  -165  166  0
174  -173  170  0
174  169  -170  0
174  170  171  0
-178  -174  175  0
182  -181  -178  0
182  181  177  0
182  177  -178  0
182  -178  -179  0
-186  185  182  0
186  185  -181  0
190  -185  186  0
190  -186  187  0
-194  193  -190  0
194  -193  189  0
-198  -197  193  0
-202  -201  198  0
202  -197  -198  0
-202  198  -199  0
206  -205  202  0
206  205  -201  0
206  -201  -202  0
-206  202  -203  0
-210  -209  -206  0
-210  209  -205  0
210  -205  206  0
210  206  -207  0
214  209  -210  0
218  -217  213  0
-218  213  -214  0
-218  214  -215  0
-222  -221  218  0
-222  -217  218  0
-222  218  -219  0
-226  -225  222  0
-226  -225  -221  0
-226  -222  223  0
-230  225  226  0
230  226  227  0
-234  -233  -230  0
-234  230  -231  0
238  237  233  0
238  233  -234  0
242  241  -238  0
242  237  -238  0
246  -245  241  0
-246  -241  242  0
-250  -249  -246  0
-250  246  -247  0
-254  -253  250  0
-254  253  -249  0
-258  257  254  0
258  257  253  0
-258  253  254  0
262  -261  258  0
-262  261  257  0
262  -258  259  0
-266  265  262  0
266  265  261  0
266  -261  -262  0
266  262  -263  0
-270  -269  266  0
270  269  265  0
270  -266  267  0
-274  273  270  0
274  273  269  0
274  -269  -270  0
-274  -270  271  0
278  277  273  0
278  273  -274  0
-278  274  275  0
-282  -281  278  0
286  285  282  0
286  285  -281  0
286  282  283  0
-290  -289  286  0
290  -289  285  0
-290  285  -286  0
-290  286  -287  0
294  -293  -289  0
-294  -289  290  0
-294  290  291  0
298  297  -294  0
-298  -297  -293  0
298  -293  -294  0
302  -301  298  0
310  -309  306  0
-310  309  305  0
310  306  -307  0
314  313  -309  0
314  309  -310  0
314  -310  -311  0
318  -317  -314  0
318  317  -313  0
318  313  314  0
318  -314  -315  0
7  -6  2  0
7  -2  -3  0
11  -10  -7  0
15  -14  11  0
-15  -14  -10  0
-15  10  -11  0
19  18  -14  0
-19  -15  -16  0
-23  22  -19  0
23  18  19  0
-23  -19  -20  0
-27  -26  22  0
-27  -22  23  0
27  23  24  0
31  -30  -27  0
31  30  -26  0
31  -26  27  0
31  27  -28  0
35  34  30  0
35  30  31  0
39  38  -35  0
-39  38  -34  0
39  34  -35  0
-43  -42  -39  0
43  38  -39  0
-47  46  -43  0
47  -46  42  0
47  -42  -43  0
-51  50  46  0
51  -46  -47  0
-51  -47  -48  0
55  -54  50  0
55  51  -52  0
59  58  -55  0
-59  -58  54  0
-59  -54  -55  0
59  55  -56  0
-63  -62  -59  0
-63  -62  -58  0
-67  -66  63  0
67  -62  63  0
-67  -63  64  0
71  70  -66  0
71  66  67  0
-75  -74  71  0
75  -74  -70  0
75  70  71  0
75  71  72  0
-79  78  -75  0
-79  78  74  0
79  74  -75  0
79  -75  -76  0
-83  82  78  0
83  78  -79  0
83  79  -80  0
-87  82  -83  0
-87  -83  84  0
-91  90  87  0
-95  94  90  0
95  -90  -91  0
95  91  92  0
99  -98  -95  0
99  94  -95  0
103  -102  -98  0
-103  98  99  0
103  99  100  0
107  -106  103  0
107  -103  -104  0
-111  110  -106  0
111  -107  -108  0
115  114  111  0
-115  -110  -111  0
119  114  115  0
-123  -122  -119  0
-123  119  120  0
-127  -126  -123  0
127  126  122  0
127  122  123  0
127  123  124  0
-131  -130  -127  0
131  -130  126  0
-131  -126  127  0
131  127  -128  0
-135  134  -131  0
135  -134  130  0
-135  130  131  0
139  -138  135  0
-139  -138  -134  0
139  134  135  0
-139  -135  -136  0
-143  142  -139  0
-147  146  143  0
147  -143  -144  0
151  -150  146  0
-151  147  -148  0
155  -154  -151  0
155  -154  150  0
155  -150  -151  0
159  154  155  0
159  155  -156  0
163  162  159  0
-163  162  -158  0
163  158  159  0
-167  -166  -163  0
-167  162  163  0
-171  -170  -166  0
-171  -166  -167  0
175  174  170  0
175  170  171  0
-175  -171  172  0
-179  178  175  0
179  178  174  0
-179  -174  175  0
-179  175  -176  0
183  -182  179  0
187  -186  -183  0
-191  190  187  0
-191  190  -186  0
191  187  -188  0
-195  194  -191  0
-195  -194  -190  0
195  -190  191  0
195  -191  -192  0
199  -198  -195  0
-199  198  194  0
-199  195  -196  0
-203  202  -198  0
203  198  199  0
207  -206  203  0
-207  -206  202  0
-211  -210  -206  0
-211  -207  208  0
215  214  211  0
-215  -210  -211  0
219  218  215  0
-219  218  -214  0
-219  -214  -215  0
223  -222  -219  0
-223  222  -218  0
-223  218  -219  0
223  219  -220  0
227  226  223  0
-227  -226  -222  0
231  -230  226  0
231  -227  -228  0
-235  -234  -231  0
235  -234  -230  0
-235  -231  -232  0
-239  238  -235  0
-239  234  -235  0
239  -235  -236  0
-243  242  -239  0
243  -242  -238  0
-243  239  -240  0
-247  -243  -244  0
251  250  246  0
251  -246  247  0
251  247  248  0
255  254  -251  0
-255  -254  250  0
255  -251  -252  0
-259  255  -256  0
263  262  -259  0
-263  262  258  0
263  -259  -260  0
267  266  -262  0
-267  -262  263  0
271  -270  -267  0
271  -266  267  0
-275  274  -270  0
-275  270  -271  0
-279  -278  274  0
-279  -274  275  0
-283  282  -279  0
283  282  -278  0
283  278  -279  0
-283  -279  280  0
-287  282  283  0
287  -283  -284  0
291  290  -286  0
291  286  -287  0
-291  -287  288  0
295  294  -291  0
-295  -290  -291  0
295  -291  292  0
-299  -298  294  0
-299  -294  295  0
299  295  296  0
303  -302  -299  0
303  302  298  0
307  -306  -302  0
307  -302  303  0
311  -310  307  0
311  310  306  0
311  306  307  0
315  -314  -311  0
315  -314  -310  0
315  311  312  0
319  314  -315  0
-8  7  4  0
8  -7  -3  0
-8  3  4  0
12  -11  -7  0
-12  7  -8  0
16  15  -12  0
20  19  16  0
-20  19  -15  0
24  -23  -20  0
-24  -23  19  0
24  19  -20  0
-28  27  -24  0
28  27  -23  0
-32  -31  28  0
32  31  -27  0
-40  39  36  0
-40  35  -36  0
-44  -43  -40  0
-44  43  39  0
44  39  -40  0
-48  -47  44  0
48  47  43  0
-48  -43  -44  0
52  51  -48  0
52  47  -48  0
56  55  52  0
56  -55  -51  0
56  51  -52  0
60  59  56  0
64  63  59  0
68  63  64  0
72  71  68  0
-72  -71  67  0
76  -75  72  0
-80  79  -76  0
84  83  79  0
-84  -79  80  0
88  87  83  0
88  -83  84  0
-92  -87  -88  0
96  -95  92  0
-96  -95  91  0
-96  -91  92  0
100  -99  -96  0
-100  95  -96  0
104  103  -100  0
-108  107  -103  0
-108  -103  104  0
-112  111  108  0
-112  -111  -107  0
120  119  116  0
-120  -119  -115  0
124  123  119  0
128  127  124  0
-128  123  -124  0
-132  -131  128  0
-132  -131  127  0
132  -127  128  0
-136  -131  132  0
-140  -139  136  0
140  139  135  0
-140  135  136  0
144  143  140  0
144  143  -139  0
-148  -143  144  0
152  -151  148  0
152  -151  147  0
152  147  -148  0
156  -155  152  0
156  155  151  0
156  -151  -152  0
160  159  156  0
-160  159  -155  0
160  -155  -156  0
164  -163  -159  0
164  -159  160  0
168  -167  163  0
-168  -163  -164  0
172  171  -168  0
172  -171  -167  0
-172  167  168  0
176  -175  172  0
176  -175  -171  0
-180  -179  -176  0
180  179  175  0
180  -175  176  0
-184  183  180  0
184  -183  179  0
184  179  180  0
188  -187  -184  0
-188  187  -183  0
192  -191  188  0
-192  191  187  0
-192  187  -188  0
196  195  -192  0
-196  195  191  0
-200  199  -196  0
200  -199  195  0
-200  195  -196  0
204  203  200  0
-204  -203  199  0
208  207  -204  0
-208  207  203  0
208  -203  -204  0
216  -215  -212  0
216  -215  211  0
-216  -211  -212  0
220  215  216  0
-224  -219  220  0
228  223  224  0
232  231  -228  0
-232  -231  -227  0
232  -227  -228  0
-236  235  -232  0
236  235  -231  0
240  239  -236  0
-240  -239  -235  0
244  243  240  0
248  -247  -244  0
248  247  243  0
248  -243  -244  0
-252  -251  248  0
-256  255  251  0
-256  251  252  0
-260  259  255  0
264  263  260  0
-264  -263  -259  0
268  -267  -263  0
-268  -263  -264  0
272  271  -267  0
272  267  -268  0
276  -275  272  0
-276  271  -272  0
-280  279  -276  0
280  -279  275  0
-280  275  -276  0
284  283  280  0
-284  279  -280  0
-288  287  -284  0
-288  287  -283  0
-288  283  284  0
292  291  287  0
292  287  -288  0
296  -295  -292  0
-296  -295  -291  0
296  291  -292  0
300  -299  296  0
300  295  296  0
304  303  300  0
-304  -303  299  0
-304  -299  -300  0
-308  303  304  0
-312  311  308  0
312  -311  -307  0
312  307  308  0
316  315  -312  0
316  311  312  0
320  315  316  0
